p cnf 100 977
-1 -5 0
-1 -7 0
-1 -10 0
-1 -13 0
-1 -25 0
-1 -30 0
-1 -34 0
-1 -39 0
-1 -42 0
-1 -45 0
-1 -47 0
-1 -50 0
-1 -54 0
-1 -56 0
-1 -58 0
-1 -68 0
-1 -82 0
-1 -86 0
-1 -91 0
-1 -93 0
-1 -96 0
-2 -4 0
-2 -10 0
-2 -14 0
-2 -22 0
-2 -31 0
-2 -34 0
-2 -40 0
-2 -42 0
-2 -55 0
-2 -58 0
-2 -63 0
-2 -64 0
-2 -75 0
-2 -76 0
-2 -79 0
-2 -82 0
-2 -84 0
-2 -85 0
-2 -87 0
-2 -96 0
-2 -98 0
-2 -99 0
-3 -4 0
-3 -11 0
-3 -12 0
-3 -14 0
-3 -21 0
-3 -23 0
-3 -31 0
-3 -33 0
-3 -38 0
-3 -39 0
-3 -44 0
-3 -69 0
-3 -71 0
-3 -77 0
-3 -79 0
-3 -81 0
-3 -83 0
-3 -85 0
-3 -88 0
-3 -89 0
-3 -98 0
-4 -15 0
-4 -19 0
-4 -36 0
-4 -37 0
-4 -48 0
-4 -49 0
-4 -53 0
-4 -56 0
-4 -57 0
-4 -63 0
-4 -70 0
-4 -72 0
-4 -75 0
-4 -82 0
-4 -83 0
-4 -87 0
-4 -88 0
-5 -10 0
-5 -12 0
-5 -14 0
-5 -15 0
-5 -25 0
-5 -27 0
-5 -33 0
-5 -36 0
-5 -39 0
-5 -46 0
-5 -51 0
-5 -52 0
-5 -62 0
-5 -67 0
-5 -79 0
-5 -84 0
-5 -85 0
-5 -88 0
-5 -89 0
-5 -96 0
-5 -99 0
-6 -8 0
-6 -9 0
-6 -30 0
-6 -32 0
-6 -33 0
-6 -39 0
-6 -44 0
-6 -53 0
-6 -58 0
-6 -62 0
-6 -73 0
-6 -75 0
-6 -81 0
-6 -83 0
-6 -89 0
-6 -93 0
-6 -96 0
-7 -14 0
-7 -26 0
-7 -27 0
-7 -29 0
-7 -32 0
-7 -41 0
-7 -48 0
-7 -53 0
-7 -62 0
-7 -63 0
-7 -71 0
-7 -84 0
-7 -85 0
-7 -92 0
-7 -98 0
-7 -99 0
-8 -9 0
-8 -34 0
-8 -40 0
-8 -41 0
-8 -43 0
-8 -60 0
-8 -63 0
-8 -72 0
-8 -79 0
-8 -93 0
-8 -96 0
-8 -98 0
-9 -13 0
-9 -16 0
-9 -17 0
-9 -21 0
-9 -23 0
-9 -24 0
-9 -28 0
-9 -30 0
-9 -36 0
-9 -45 0
-9 -50 0
-9 -52 0
-9 -53 0
-9 -57 0
-9 -61 0
-9 -63 0
-9 -64 0
-9 -67 0
-9 -76 0
-9 -87 0
-9 -94 0
-9 -97 0
-10 -12 0
-10 -13 0
-10 -15 0
-10 -31 0
-10 -49 0
-10 -53 0
-10 -58 0
-10 -59 0
-10 -63 0
-10 -67 0
-10 -72 0
-10 -76 0
-10 -84 0
-10 -94 0
-10 -95 0
-10 -99 0
-11 -12 0
-11 -14 0
-11 -18 0
-11 -19 0
-11 -21 0
-11 -22 0
-11 -25 0
-11 -32 0
-11 -34 0
-11 -35 0
-11 -42 0
-11 -45 0
-11 -51 0
-11 -54 0
-11 -56 0
-11 -57 0
-11 -63 0
-11 -72 0
-11 -74 0
-11 -76 0
-11 -77 0
-11 -85 0
-11 -87 0
-11 -95 0
-11 -98 0
-12 -13 0
-12 -14 0
-12 -44 0
-12 -51 0
-12 -54 0
-12 -56 0
-12 -61 0
-12 -72 0
-12 -73 0
-12 -90 0
-12 -91 0
-12 -95 0
-12 -96 0
-12 -97 0
-12 -98 0
-13 -15 0
-13 -17 0
-13 -20 0
-13 -27 0
-13 -35 0
-13 -41 0
-13 -51 0
-13 -52 0
-13 -56 0
-13 -64 0
-13 -67 0
-13 -69 0
-13 -70 0
-13 -78 0
-13 -81 0
-13 -91 0
-13 -98 0
-13 -100 0
-14 -23 0
-14 -24 0
-14 -27 0
-14 -31 0
-14 -35 0
-14 -37 0
-14 -40 0
-14 -42 0
-14 -46 0
-14 -49 0
-14 -52 0
-14 -57 0
-14 -61 0
-14 -62 0
-14 -75 0
-15 -26 0
-15 -29 0
-15 -33 0
-15 -35 0
-15 -38 0
-15 -43 0
-15 -49 0
-15 -51 0
-15 -60 0
-15 -65 0
-15 -69 0
-15 -71 0
-15 -77 0
-15 -99 0
-16 -20 0
-16 -26 0
-16 -27 0
-16 -35 0
-16 -46 0
-16 -53 0
-16 -57 0
-16 -60 0
-16 -70 0
-16 -71 0
-16 -74 0
-16 -82 0
-16 -83 0
-16 -86 0
-16 -87 0
-16 -92 0
-16 -97 0
-17 -23 0
-17 -33 0
-17 -44 0
-17 -54 0
-17 -68 0
-17 -78 0
-17 -100 0
-18 -21 0
-18 -22 0
-18 -25 0
-18 -27 0
-18 -29 0
-18 -31 0
-18 -32 0
-18 -37 0
-18 -44 0
-18 -45 0
-18 -54 0
-18 -56 0
-18 -59 0
-18 -63 0
-18 -75 0
-18 -81 0
-18 -82 0
-18 -89 0
-18 -90 0
-18 -92 0
-19 -23 0
-19 -26 0
-19 -27 0
-19 -28 0
-19 -34 0
-19 -38 0
-19 -48 0
-19 -49 0
-19 -57 0
-19 -63 0
-19 -75 0
-19 -85 0
-19 -92 0
-19 -96 0
-19 -98 0
-19 -100 0
-20 -32 0
-20 -36 0
-20 -38 0
-20 -40 0
-20 -45 0
-20 -48 0
-20 -52 0
-20 -53 0
-20 -54 0
-20 -55 0
-20 -68 0
-20 -76 0
-20 -93 0
-20 -98 0
-21 -22 0
-21 -31 0
-21 -34 0
-21 -40 0
-21 -41 0
-21 -46 0
-21 -49 0
-21 -56 0
-21 -58 0
-21 -60 0
-21 -61 0
-21 -69 0
-21 -70 0
-21 -71 0
-21 -76 0
-21 -84 0
-21 -86 0
-21 -95 0
-21 -96 0
-21 -100 0
-22 -31 0
-22 -34 0
-22 -40 0
-22 -58 0
-22 -60 0
-22 -62 0
-22 -64 0
-22 -72 0
-22 -73 0
-22 -74 0
-22 -78 0
-22 -79 0
-22 -80 0
-22 -82 0
-22 -83 0
-22 -85 0
-22 -86 0
-22 -97 0
-23 -30 0
-23 -33 0
-23 -34 0
-23 -37 0
-23 -48 0
-23 -57 0
-23 -60 0
-23 -73 0
-23 -74 0
-23 -75 0
-23 -82 0
-23 -89 0
-24 -27 0
-24 -29 0
-24 -34 0
-24 -36 0
-24 -37 0
-24 -41 0
-24 -45 0
-24 -47 0
-24 -50 0
-24 -58 0
-24 -70 0
-24 -79 0
-24 -85 0
-25 -26 0
-25 -28 0
-25 -29 0
-25 -31 0
-25 -36 0
-25 -42 0
-25 -47 0
-25 -52 0
-25 -57 0
-25 -58 0
-25 -62 0
-25 -68 0
-25 -77 0
-25 -83 0
-25 -98 0
-26 -29 0
-26 -31 0
-26 -33 0
-26 -34 0
-26 -55 0
-26 -60 0
-26 -61 0
-26 -64 0
-26 -68 0
-26 -71 0
-26 -72 0
-26 -74 0
-26 -79 0
-26 -84 0
-26 -85 0
-26 -95 0
-27 -30 0
-27 -43 0
-27 -46 0
-27 -47 0
-27 -49 0
-27 -52 0
-27 -57 0
-27 -58 0
-27 -65 0
-27 -68 0
-27 -70 0
-27 -73 0
-27 -75 0
-27 -81 0
-27 -86 0
-27 -93 0
-27 -96 0
-28 -33 0
-28 -38 0
-28 -43 0
-28 -44 0
-28 -45 0
-28 -50 0
-28 -69 0
-28 -71 0
-28 -72 0
-28 -75 0
-28 -78 0
-28 -81 0
-28 -89 0
-28 -98 0
-28 -100 0
-29 -30 0
-29 -32 0
-29 -35 0
-29 -41 0
-29 -44 0
-29 -45 0
-29 -58 0
-29 -64 0
-29 -68 0
-29 -69 0
-29 -70 0
-29 -71 0
-29 -80 0
-29 -88 0
-29 -91 0
-29 -97 0
-30 -34 0
-30 -39 0
-30 -45 0
-30 -54 0
-30 -59 0
-30 -70 0
-30 -77 0
-30 -93 0
-30 -96 0
-30 -100 0
-31 -33 0
-31 -41 0
-31 -49 0
-31 -59 0
-31 -61 0
-31 -62 0
-31 -67 0
-31 -74 0
-31 -77 0
-31 -82 0
-31 -83 0
-31 -86 0
-31 -90 0
-31 -93 0
-32 -36 0
-32 -42 0
-32 -46 0
-32 -50 0
-32 -59 0
-32 -60 0
-32 -62 0
-32 -68 0
-32 -80 0
-32 -83 0
-32 -85 0
-33 -36 0
-33 -49 0
-33 -50 0
-33 -54 0
-33 -63 0
-33 -66 0
-33 -70 0
-33 -71 0
-33 -76 0
-33 -82 0
-33 -83 0
-33 -84 0
-33 -93 0
-33 -95 0
-34 -39 0
-34 -49 0
-34 -51 0
-34 -58 0
-34 -63 0
-34 -68 0
-34 -70 0
-34 -79 0
-34 -82 0
-34 -85 0
-34 -87 0
-34 -91 0
-34 -97 0
-34 -99 0
-35 -41 0
-35 -45 0
-35 -57 0
-35 -60 0
-35 -62 0
-35 -76 0
-35 -94 0
-35 -95 0
-35 -98 0
-36 -44 0
-36 -49 0
-36 -58 0
-36 -64 0
-36 -67 0
-36 -72 0
-36 -73 0
-36 -78 0
-36 -80 0
-36 -81 0
-36 -87 0
-36 -91 0
-36 -93 0
-37 -38 0
-37 -45 0
-37 -55 0
-37 -59 0
-37 -60 0
-37 -68 0
-37 -72 0
-37 -73 0
-37 -86 0
-37 -87 0
-37 -91 0
-38 -39 0
-38 -50 0
-38 -54 0
-38 -55 0
-38 -59 0
-38 -61 0
-38 -64 0
-38 -65 0
-38 -66 0
-38 -68 0
-38 -69 0
-38 -79 0
-38 -91 0
-38 -93 0
-38 -100 0
-39 -43 0
-39 -44 0
-39 -47 0
-39 -49 0
-39 -54 0
-39 -56 0
-39 -64 0
-39 -73 0
-39 -76 0
-39 -78 0
-39 -80 0
-39 -83 0
-39 -86 0
-39 -94 0
-39 -99 0
-39 -100 0
-40 -45 0
-40 -46 0
-40 -48 0
-40 -53 0
-40 -58 0
-40 -61 0
-40 -78 0
-40 -80 0
-40 -87 0
-40 -90 0
-41 -44 0
-41 -51 0
-41 -52 0
-41 -55 0
-41 -57 0
-41 -61 0
-41 -65 0
-41 -68 0
-41 -73 0
-41 -77 0
-41 -80 0
-41 -87 0
-41 -100 0
-42 -43 0
-42 -44 0
-42 -45 0
-42 -51 0
-42 -53 0
-42 -55 0
-42 -61 0
-42 -62 0
-42 -71 0
-42 -75 0
-42 -76 0
-42 -79 0
-42 -82 0
-42 -84 0
-42 -91 0
-43 -53 0
-43 -55 0
-43 -65 0
-43 -66 0
-43 -67 0
-43 -72 0
-43 -83 0
-43 -90 0
-43 -91 0
-43 -95 0
-43 -96 0
-44 -54 0
-44 -57 0
-44 -62 0
-44 -74 0
-44 -75 0
-44 -77 0
-44 -79 0
-44 -95 0
-45 -47 0
-45 -48 0
-45 -49 0
-45 -53 0
-45 -58 0
-45 -60 0
-45 -64 0
-45 -70 0
-45 -71 0
-45 -73 0
-45 -74 0
-45 -82 0
-45 -93 0
-45 -100 0
-46 -47 0
-46 -53 0
-46 -55 0
-46 -64 0
-46 -65 0
-46 -79 0
-46 -80 0
-46 -99 0
-46 -100 0
-47 -48 0
-47 -49 0
-47 -50 0
-47 -59 0
-47 -77 0
-47 -92 0
-47 -97 0
-48 -49 0
-48 -50 0
-48 -51 0
-48 -55 0
-48 -56 0
-48 -57 0
-48 -58 0
-48 -62 0
-48 -68 0
-48 -70 0
-48 -81 0
-48 -82 0
-48 -83 0
-48 -93 0
-48 -94 0
-48 -96 0
-48 -98 0
-48 -99 0
-49 -80 0
-49 -90 0
-49 -95 0
-49 -97 0
-49 -100 0
-50 -64 0
-50 -68 0
-50 -70 0
-50 -79 0
-50 -82 0
-50 -83 0
-50 -91 0
-50 -92 0
-50 -100 0
-51 -62 0
-51 -68 0
-51 -70 0
-51 -77 0
-51 -83 0
-51 -90 0
-51 -94 0
-51 -97 0
-51 -100 0
-52 -56 0
-52 -74 0
-52 -76 0
-52 -77 0
-52 -81 0
-52 -83 0
-52 -92 0
-52 -100 0
-53 -67 0
-53 -71 0
-53 -72 0
-53 -77 0
-53 -78 0
-53 -89 0
-53 -97 0
-53 -99 0
-54 -57 0
-54 -62 0
-54 -64 0
-54 -69 0
-54 -74 0
-54 -77 0
-54 -83 0
-54 -97 0
-54 -100 0
-55 -58 0
-55 -61 0
-55 -70 0
-55 -76 0
-55 -82 0
-55 -85 0
-55 -90 0
-55 -91 0
-55 -98 0
-56 -66 0
-56 -67 0
-56 -69 0
-56 -76 0
-56 -78 0
-56 -89 0
-56 -94 0
-57 -59 0
-57 -62 0
-57 -63 0
-57 -65 0
-57 -72 0
-57 -74 0
-57 -81 0
-57 -87 0
-57 -93 0
-57 -97 0
-58 -61 0
-58 -69 0
-58 -73 0
-58 -74 0
-58 -75 0
-58 -81 0
-58 -85 0
-58 -93 0
-58 -97 0
-59 -65 0
-59 -66 0
-59 -75 0
-59 -92 0
-59 -99 0
-60 -63 0
-60 -64 0
-60 -69 0
-60 -87 0
-60 -89 0
-60 -98 0
-60 -99 0
-61 -63 0
-61 -67 0
-61 -76 0
-61 -83 0
-61 -90 0
-61 -92 0
-62 -68 0
-62 -72 0
-62 -80 0
-62 -83 0
-62 -84 0
-62 -86 0
-62 -91 0
-62 -92 0
-63 -65 0
-63 -72 0
-63 -73 0
-63 -78 0
-63 -92 0
-63 -98 0
-64 -69 0
-64 -73 0
-64 -81 0
-64 -89 0
-65 -66 0
-65 -79 0
-66 -69 0
-66 -70 0
-66 -75 0
-66 -81 0
-66 -82 0
-66 -84 0
-66 -85 0
-66 -89 0
-66 -95 0
-66 -97 0
-67 -70 0
-67 -74 0
-67 -75 0
-67 -76 0
-67 -78 0
-67 -80 0
-67 -84 0
-67 -86 0
-67 -94 0
-67 -97 0
-67 -98 0
-68 -74 0
-68 -79 0
-68 -82 0
-68 -86 0
-68 -87 0
-68 -88 0
-68 -95 0
-68 -96 0
-68 -97 0
-68 -98 0
-69 -74 0
-69 -75 0
-69 -79 0
-69 -81 0
-69 -83 0
-69 -89 0
-69 -90 0
-70 -73 0
-70 -77 0
-70 -84 0
-70 -98 0
-70 -99 0
-71 -73 0
-71 -81 0
-71 -82 0
-71 -84 0
-71 -88 0
-71 -98 0
-72 -75 0
-72 -81 0
-72 -83 0
-72 -92 0
-72 -94 0
-72 -98 0
-72 -99 0
-73 -86 0
-73 -91 0
-73 -92 0
-73 -94 0
-73 -96 0
-73 -98 0
-73 -99 0
-74 -75 0
-74 -79 0
-74 -84 0
-74 -85 0
-74 -100 0
-75 -79 0
-75 -86 0
-75 -91 0
-75 -94 0
-75 -97 0
-75 -99 0
-76 -78 0
-76 -82 0
-76 -92 0
-76 -96 0
-76 -99 0
-77 -79 0
-77 -83 0
-77 -85 0
-77 -89 0
-77 -96 0
-77 -97 0
-78 -79 0
-78 -80 0
-78 -81 0
-78 -89 0
-78 -93 0
-78 -100 0
-79 -81 0
-79 -87 0
-79 -91 0
-79 -98 0
-80 -83 0
-80 -91 0
-80 -95 0
-80 -96 0
-81 -86 0
-81 -88 0
-81 -90 0
-81 -92 0
-81 -95 0
-81 -98 0
-82 -83 0
-83 -85 0
-84 -85 0
-84 -88 0
-84 -90 0
-84 -93 0
-84 -96 0
-84 -99 0
-85 -89 0
-85 -91 0
-85 -98 0
-86 -89 0
-86 -90 0
-86 -91 0
-87 -100 0
-88 -95 0
-89 -97 0
-90 -92 0
-90 -94 0
-90 -98 0
-91 -92 0
-91 -94 0
-91 -96 0
-92 -94 0
-92 -98 0
-93 -96 0
-94 -97 0
-94 -100 0
-96 -97 0
-96 -99 0
-97 -100 0
